p edge 180 711
e 1 2
e 2 3
e 3 1
e 4 5
e 5 6
e 6 4
e 7 8
e 8 9
e 9 7
e 10 11
e 11 12
e 12 10
e 13 14
e 14 15
e 15 13
e 16 17
e 17 18
e 18 16
e 19 20
e 20 21
e 21 19
e 22 23
e 23 24
e 24 22
e 25 26
e 26 27
e 27 25
e 28 29
e 29 30
e 30 28
e 31 32
e 32 33
e 33 31
e 34 35
e 35 36
e 36 34
e 37 38
e 38 39
e 39 37
e 40 41
e 41 42
e 42 40
e 43 44
e 44 45
e 45 43
e 46 47
e 47 48
e 48 46
e 49 50
e 50 51
e 51 49
e 52 53
e 53 54
e 54 52
e 55 56
e 56 57
e 57 55
e 58 59
e 59 60
e 60 58
e 61 62
e 62 63
e 63 61
e 64 65
e 65 66
e 66 64
e 67 68
e 68 69
e 69 67
e 70 71
e 71 72
e 72 70
e 73 74
e 74 75
e 75 73
e 76 77
e 77 78
e 78 76
e 79 80
e 80 81
e 81 79
e 82 83
e 83 84
e 84 82
e 85 86
e 86 87
e 87 85
e 88 89
e 89 90
e 90 88
e 91 92
e 92 93
e 93 91
e 94 95
e 95 96
e 96 94
e 97 98
e 98 99
e 99 97
e 100 101
e 101 102
e 102 100
e 103 104
e 104 105
e 105 103
e 106 107
e 107 108
e 108 106
e 109 110
e 110 111
e 111 109
e 112 113
e 113 114
e 114 112
e 115 116
e 116 117
e 117 115
e 118 119
e 119 120
e 120 118
e 121 122
e 122 123
e 123 121
e 124 125
e 125 126
e 126 124
e 127 128
e 128 129
e 129 127
e 130 131
e 131 132
e 132 130
e 133 134
e 134 135
e 135 133
e 136 137
e 137 138
e 138 136
e 139 140
e 140 141
e 141 139
e 142 143
e 143 144
e 144 142
e 145 146
e 146 147
e 147 145
e 148 149
e 149 150
e 150 148
e 151 152
e 152 153
e 153 151
e 154 155
e 155 156
e 156 154
e 157 158
e 158 159
e 159 157
e 160 161
e 161 162
e 162 160
e 163 164
e 164 165
e 165 163
e 166 167
e 167 168
e 168 166
e 169 170
e 170 171
e 171 169
e 172 173
e 173 174
e 174 172
e 175 176
e 176 177
e 177 175
e 178 179
e 179 180
e 180 178
e 1 4
e 1 5
e 1 6
e 1 7
e 1 8
e 1 9
e 1 10
e 1 11
e 1 12
e 1 13
e 1 14
e 1 15
e 1 16
e 1 17
e 1 18
e 1 19
e 1 20
e 1 21
e 1 22
e 1 23
e 1 24
e 1 25
e 1 26
e 1 27
e 1 28
e 1 29
e 1 30
e 1 31
e 1 32
e 1 33
e 1 34
e 1 35
e 1 36
e 1 37
e 1 38
e 1 39
e 1 40
e 1 41
e 1 42
e 1 43
e 1 44
e 1 45
e 1 46
e 1 47
e 1 48
e 1 49
e 1 50
e 1 51
e 1 52
e 1 53
e 1 54
e 1 55
e 1 56
e 1 57
e 1 58
e 1 59
e 1 60
e 1 61
e 1 62
e 1 63
e 1 64
e 1 65
e 1 66
e 1 67
e 1 68
e 1 69
e 1 70
e 1 71
e 1 72
e 1 73
e 1 74
e 1 75
e 1 76
e 1 77
e 1 78
e 1 79
e 1 80
e 1 81
e 1 82
e 1 83
e 1 84
e 1 85
e 1 86
e 1 87
e 1 88
e 1 89
e 1 90
e 1 91
e 1 92
e 1 93
e 1 94
e 1 95
e 1 96
e 1 97
e 1 98
e 1 99
e 1 100
e 1 101
e 1 102
e 1 103
e 1 104
e 1 105
e 1 106
e 1 107
e 1 108
e 1 109
e 1 110
e 1 111
e 1 112
e 1 113
e 1 114
e 1 115
e 1 116
e 1 117
e 1 118
e 1 119
e 1 120
e 1 121
e 1 122
e 1 123
e 1 124
e 1 125
e 1 126
e 1 127
e 1 128
e 1 129
e 1 130
e 1 131
e 1 132
e 1 133
e 1 134
e 1 135
e 1 136
e 1 137
e 1 138
e 1 139
e 1 140
e 1 141
e 1 142
e 1 143
e 1 144
e 1 145
e 1 146
e 1 147
e 1 148
e 1 149
e 1 150
e 1 151
e 1 152
e 1 153
e 1 154
e 1 155
e 1 156
e 1 157
e 1 158
e 1 159
e 1 160
e 1 161
e 1 162
e 1 163
e 1 164
e 1 165
e 1 166
e 1 167
e 1 168
e 1 169
e 1 170
e 1 171
e 1 172
e 1 173
e 1 174
e 1 175
e 1 176
e 1 177
e 1 178
e 1 179
e 1 180
e 2 4
e 2 5
e 2 6
e 2 7
e 2 8
e 2 9
e 2 10
e 2 11
e 2 12
e 2 13
e 2 14
e 2 15
e 2 16
e 2 17
e 2 18
e 2 19
e 2 20
e 2 21
e 2 22
e 2 23
e 2 24
e 2 25
e 2 26
e 2 27
e 2 28
e 2 29
e 2 30
e 2 31
e 2 32
e 2 33
e 2 34
e 2 35
e 2 36
e 2 37
e 2 38
e 2 39
e 2 40
e 2 41
e 2 42
e 2 43
e 2 44
e 2 45
e 2 46
e 2 47
e 2 48
e 2 49
e 2 50
e 2 51
e 2 52
e 2 53
e 2 54
e 2 55
e 2 56
e 2 57
e 2 58
e 2 59
e 2 60
e 2 61
e 2 62
e 2 63
e 2 64
e 2 65
e 2 66
e 2 67
e 2 68
e 2 69
e 2 70
e 2 71
e 2 72
e 2 73
e 2 74
e 2 75
e 2 76
e 2 77
e 2 78
e 2 79
e 2 80
e 2 81
e 2 82
e 2 83
e 2 84
e 2 85
e 2 86
e 2 87
e 2 88
e 2 89
e 2 90
e 2 91
e 2 92
e 2 93
e 2 94
e 2 95
e 2 96
e 2 97
e 2 98
e 2 99
e 2 100
e 2 101
e 2 102
e 2 103
e 2 104
e 2 105
e 2 106
e 2 107
e 2 108
e 2 109
e 2 110
e 2 111
e 2 112
e 2 113
e 2 114
e 2 115
e 2 116
e 2 117
e 2 118
e 2 119
e 2 120
e 2 121
e 2 122
e 2 123
e 2 124
e 2 125
e 2 126
e 2 127
e 2 128
e 2 129
e 2 130
e 2 131
e 2 132
e 2 133
e 2 134
e 2 135
e 2 136
e 2 137
e 2 138
e 2 139
e 2 140
e 2 141
e 2 142
e 2 143
e 2 144
e 2 145
e 2 146
e 2 147
e 2 148
e 2 149
e 2 150
e 2 151
e 2 152
e 2 153
e 2 154
e 2 155
e 2 156
e 2 157
e 2 158
e 2 159
e 2 160
e 2 161
e 2 162
e 2 163
e 2 164
e 2 165
e 2 166
e 2 167
e 2 168
e 2 169
e 2 170
e 2 171
e 2 172
e 2 173
e 2 174
e 2 175
e 2 176
e 2 177
e 2 178
e 2 179
e 2 180
e 3 4
e 3 5
e 3 6
e 3 7
e 3 8
e 3 9
e 3 10
e 3 11
e 3 12
e 3 13
e 3 14
e 3 15
e 3 16
e 3 17
e 3 18
e 3 19
e 3 20
e 3 21
e 3 22
e 3 23
e 3 24
e 3 25
e 3 26
e 3 27
e 3 28
e 3 29
e 3 30
e 3 31
e 3 32
e 3 33
e 3 34
e 3 35
e 3 36
e 3 37
e 3 38
e 3 39
e 3 40
e 3 41
e 3 42
e 3 43
e 3 44
e 3 45
e 3 46
e 3 47
e 3 48
e 3 49
e 3 50
e 3 51
e 3 52
e 3 53
e 3 54
e 3 55
e 3 56
e 3 57
e 3 58
e 3 59
e 3 60
e 3 61
e 3 62
e 3 63
e 3 64
e 3 65
e 3 66
e 3 67
e 3 68
e 3 69
e 3 70
e 3 71
e 3 72
e 3 73
e 3 74
e 3 75
e 3 76
e 3 77
e 3 78
e 3 79
e 3 80
e 3 81
e 3 82
e 3 83
e 3 84
e 3 85
e 3 86
e 3 87
e 3 88
e 3 89
e 3 90
e 3 91
e 3 92
e 3 93
e 3 94
e 3 95
e 3 96
e 3 97
e 3 98
e 3 99
e 3 100
e 3 101
e 3 102
e 3 103
e 3 104
e 3 105
e 3 106
e 3 107
e 3 108
e 3 109
e 3 110
e 3 111
e 3 112
e 3 113
e 3 114
e 3 115
e 3 116
e 3 117
e 3 118
e 3 119
e 3 120
e 3 121
e 3 122
e 3 123
e 3 124
e 3 125
e 3 126
e 3 127
e 3 128
e 3 129
e 3 130
e 3 131
e 3 132
e 3 133
e 3 134
e 3 135
e 3 136
e 3 137
e 3 138
e 3 139
e 3 140
e 3 141
e 3 142
e 3 143
e 3 144
e 3 145
e 3 146
e 3 147
e 3 148
e 3 149
e 3 150
e 3 151
e 3 152
e 3 153
e 3 154
e 3 155
e 3 156
e 3 157
e 3 158
e 3 159
e 3 160
e 3 161
e 3 162
e 3 163
e 3 164
e 3 165
e 3 166
e 3 167
e 3 168
e 3 169
e 3 170
e 3 171
e 3 172
e 3 173
e 3 174
e 3 175
e 3 176
e 3 177
e 3 178
e 3 179
e 3 180
